lbl,CUST NO.,READY TIME,XCOORD.,YCOORD.,DEMAND,DUE DATE,SERVICE TIME
3,124,0,132,24,10,1184,90
3,200,0,131,31,20,1189,90
3,148,70,127,29,20,141,90
3,103,128,127,28,30,195,90
3,197,229,130,27,30,280,90
3,141,406,136,29,10,482,90
3,69,508,134,31,20,566,90
